GLPSOL: GLPK LP/MIP Solver, v4.55
Parameter(s) specified in the command line:
 -m tmp.mod
Reading model section from tmp.mod...
Reading data section from tmp.mod...
4309 lines were read
Generating obj...
Generating kirhoff...
Generating init_charge...
Generating batt_size...
Model has been successfully generated
GLPK Simplex Optimizer, v4.55
5605 rows, 7688 columns, 16632 non-zeros
Preprocessing...
3990 rows, 7558 columns, 16296 non-zeros
Scaling...
 A: min|aij| =  1.000e+00  max|aij| =  1.000e+00  ratio =  1.000e+00
Problem data seem to be well scaled
Constructing initial basis...
Size of triangular part is 3368
      0: obj =   0.000000000e+00  infeas =  3.453e+03 (622)
    500: obj =   0.000000000e+00  infeas =  2.708e+03 (472)
   1000: obj =   1.990000000e+02  infeas =  4.020e+02 (420)
*  1240: obj =   2.220000000e+02  infeas =  0.000e+00 (412)
*  1497: obj =   8.300000000e+01  infeas =  0.000e+00 (408)
OPTIMAL LP SOLUTION FOUND
Time used:   0.4 secs
Memory used: 15.5 Mb (16204776 bytes)
#OUTPUT:
83
-100 -22 1 -45 1 0 -9 0 -2 9 3 3 0 10 0 0 0 0 12 0 0 0 9 0 0 0 0 0 0 0 4 0 1 9 0 0 0 0 0 0 0 0 0 0 1 -96 -96 0 -70 0 0 0 0 0 10 0 0 -19 -2 0 0 0 0 0 0 -1 0 0 -2 0 0 0 0 6 0 0 0 0 -5 3 0 0 21 10 0 0 0 0 0 0 0 0 5 0 0 24 0 0 0 0 0 -99 0 -24 3 6 -99 0 0 0 5 0 0 -76 0 0 0 0 0 0 0 2 0 0 5 -2 0 0 -66 0 0 -3 -1 -2 0 0 0 -66 0 0 -8 0 0 3 0 0 0 0 0 0 0 -23 0 0 0 0 0 0 0 0 0 0 0 0 0 0 0 20 3 0 0 0 0 0 0 0 0 0 0 2 0 0 0 0 0 3 0 0 0 0 0 0 0 0 0 0 2 0 0 0 0 0 0 0 0 0 0 0 0 0 0 5 0 0 2 0 0 0 0 0 0 0 0 0 0 0 0 0 0 0 0 0 -1 0 0 0 0 0 0 -2 0 0 0 0 0 0 0 0 0 24 0 0 0 0 0 -23 0 0 0 0 0 0 0 0 0 0 10 9 70 0 10 0 0 0 0 24 0 -3 31 -5 10 0 0 -2 0 37 0 0 5 -8 0 0 0 0 0 0 0 0 0 -3 0 0 0 0 2 0 0 0 -2 2 -5 -2 0 0 0 0 0 1 0 2 0 -24 0 3 20 0 0 0 0 0 0 0 0 0 0 0 0 0 0 0 0 0 0 0 0 0 0 0 0 0 0 0 0 0 0 0 0 0 0 0 0 0 0 0 0 0 0 0 0 0 0 0 0 0 0 0 0 0 0 0 0 0 0 0 0 0 0 0 0 0 0 0 0 0 0 0 0 0 0 0 0 0 0 0 0 0 0 0 0 0 0 0 0 0 0 0 0 0 0 0 0 0 0 
-51 -34 -1 -23 -1 -23 0 -7 0 1 0 0 0 0 0 0 0 0 0 -4 0 0 -16 0 0 0 0 0 0 -4 0 0 -1 0 0 0 0 0 0 0 0 0 0 -7 0 -3 -3 3 -12 0 0 0 0 0 0 0 0 0 0 0 -6 0 0 3 0 0 0 0 0 0 0 0 0 0 0 0 0 0 -5 0 0 0 0 0 0 0 0 0 0 -10 0 0 5 0 0 0 0 0 0 0 0 0 0 0 -3 0 -57 0 0 0 5 0 0 -57 0 0 0 0 0 0 0 0 0 0 5 0 0 0 -57 0 0 -7 0 -40 0 0 0 -57 0 0 -5 0 0 0 0 0 0 0 0 0 0 0 0 0 0 0 0 0 0 0 0 0 0 0 0 0 0 0 0 0 0 0 0 0 0 0 0 0 0 0 -6 0 0 0 0 0 0 0 0 0 0 0 0 0 0 -3 0 0 0 0 0 0 0 0 0 0 0 0 0 0 0 33 0 0 0 0 0 0 0 0 0 0 0 0 0 0 0 0 0 0 0 0 0 0 0 0 0 0 0 -40 0 0 0 0 0 0 0 0 0 0 0 0 0 0 0 0 0 0 0 0 0 0 0 0 0 0 0 1 6 0 24 3 0 0 -3 0 0 3 24 -5 0 0 0 0 0 24 0 0 5 -5 0 0 0 0 0 0 0 6 0 0 0 0 3 0 0 0 0 0 0 0 -33 0 0 0 0 0 0 0 0 -14 0 0 0 0 0 0 0 0 0 0 0 0 0 0 0 0 0 0 0 0 0 0 0 0 0 0 0 0 0 0 0 0 0 0 0 0 0 0 0 0 0 0 0 0 0 0 0 0 0 0 0 0 0 0 0 0 0 0 0 0 0 0 0 0 0 0 0 0 0 0 0 0 0 0 0 0 0 0 0 0 0 0 0 0 0 0 0 0 0 0 0 0 0 0 0 0 0 0 0 0 0 0 0 
-100 0 -1 1 1 1 -4 0 1 -8 0 0 -2 0 8 0 0 0 0 4 0 2 5 0 0 0 -1 0 0 6 0 0 0 0 8 8 0 0 0 10 0 0 -1 -7 0 0 0 0 -91 0 0 0 0 0 0 0 0 0 -1 0 0 0 0 0 0 0 0 0 0 0 0 0 0 8 0 0 0 0 0 0 0 0 0 23 0 -2 0 0 0 0 0 -1 0 0 0 0 0 -2 0 0 0 0 0 0 0 8 -60 -1 0 0 0 0 0 -52 0 0 -8 0 0 0 0 0 0 0 0 -8 0 -1 -29 0 0 -7 0 -15 -1 0 0 -29 0 0 -9 0 0 10 0 0 0 0 0 0 0 0 0 0 0 0 0 0 0 0 0 0 0 0 0 0 0 0 0 0 0 0 0 0 0 0 0 0 0 0 0 0 -1 0 0 0 0 0 0 0 0 0 0 0 0 0 -10 0 1 -8 -92 0 0 18 0 0 0 0 0 -1 0 21 0 0 8 0 0 0 0 0 0 0 0 0 0 0 0 0 0 0 0 0 0 0 0 0 0 0 0 -15 0 0 0 0 0 0 0 0 0 0 0 0 0 0 0 0 0 0 0 -8 0 0 0 0 0 0 0 23 -1 0 0 0 0 0 0 0 0 0 0 0 23 -1 0 0 0 8 0 -1 0 -9 0 0 0 -2 2 0 0 0 1 0 0 0 0 -1 -10 0 0 1 0 0 -21 -8 0 0 0 0 0 0 0 15 0 0 0 0 0 0 8 0 0 0 0 0 0 0 0 0 0 0 0 0 0 0 0 0 0 0 0 0 0 0 0 0 0 0 0 0 0 0 0 0 0 0 0 0 0 0 0 0 0 0 0 0 0 0 0 0 0 0 0 0 0 0 0 0 0 0 0 0 0 0 0 0 0 0 0 0 0 0 0 0 0 0 0 0 0 0 0 0 0 0 0 0 0 0 0 0 0 0 0 0 0 0 0 
-67 -33 0 -21 0 -21 13 0 0 -6 0 0 0 0 0 0 0 0 -12 0 0 0 -34 0 0 0 -6 0 0 0 4 0 0 -12 0 0 0 0 0 0 0 0 7 -7 0 -1 0 -1 -20 0 0 1 0 0 -15 0 0 0 -2 0 0 0 0 0 0 2 0 0 -2 0 0 0 -2 0 0 0 0 0 -5 0 0 0 0 0 0 0 0 0 0 0 0 0 5 0 -1 0 0 0 0 0 0 0 0 0 0 0 -67 9 0 0 5 0 0 -67 0 0 0 0 0 0 0 0 0 0 5 4 0 0 -67 0 0 -7 0 -20 0 0 0 -67 0 0 -14 0 0 0 0 0 0 0 0 0 0 0 -86 0 0 0 0 1 0 0 0 0 0 0 0 0 0 0 0 0 0 0 0 0 0 0 0 0 -38 0 0 -1 0 0 0 0 0 0 0 0 0 0 0 0 0 1 -4 0 0 0 0 0 0 0 0 0 0 0 0 0 0 20 0 0 -4 0 0 0 0 0 0 0 0 0 0 0 -1 0 0 0 0 0 0 0 0 0 0 0 0 -20 0 0 0 0 0 0 0 0 0 0 0 0 0 0 0 0 0 0 0 0 0 0 0 0 0 0 0 0 20 2 47 0 0 0 0 0 0 0 47 -5 0 0 0 -2 0 47 0 9 5 -14 0 0 0 0 0 0 0 0 0 0 0 0 -1 0 -4 0 0 0 0 0 -20 4 0 0 1 0 0 0 0 20 0 0 0 0 0 0 0 0 0 0 0 0 0 0 0 0 0 0 0 0 0 0 0 0 0 0 0 0 0 0 0 0 0 0 0 0 0 0 0 0 0 0 0 0 0 0 0 0 0 0 0 0 0 0 0 0 0 0 0 0 0 0 0 0 0 0 0 0 0 0 0 0 0 0 0 0 0 0 0 0 0 0 0 0 0 0 0 0 0 0 0 0 0 0 0 0 0 0 0 0 0 0 0 
-87 -35 0 -14 0 -14 -10 0 0 0 0 0 0 0 0 0 0 0 0 0 0 0 -4 0 0 0 1 0 0 0 -4 0 0 0 0 0 0 0 0 0 0 0 0 0 0 -10 0 1 -20 0 0 -1 0 0 1 0 0 0 0 0 -20 0 -21 0 0 0 0 0 0 0 0 0 0 -3 0 0 0 0 0 0 0 0 0 0 0 0 0 0 0 0 0 0 0 0 -10 0 0 0 0 -21 0 0 0 0 0 -3 0 0 0 0 0 0 0 0 0 0 0 0 0 0 0 0 0 0 0 -1 0 0 0 0 0 0 0 0 0 0 0 0 0 0 -32 0 0 0 0 0 0 0 0 -1 0 0 0 0 0 0 0 10 0 0 0 0 0 0 0 0 0 0 0 0 0 -32 0 0 0 0 0 0 0 0 -21 -10 0 0 0 0 0 0 0 0 0 0 0 0 0 -1 1 0 0 0 0 0 0 0 0 0 0 0 0 0 0 0 0 0 1 0 0 0 0 0 0 0 0 0 0 0 -10 0 0 0 0 0 0 0 0 0 0 0 0 0 0 0 0 0 0 0 0 0 0 0 0 0 0 0 0 0 0 0 0 0 0 0 0 0 0 0 0 0 0 0 3 0 0 0 -11 0 0 0 3 0 0 0 0 0 0 0 0 0 0 0 0 1 0 0 0 0 0 21 0 0 0 0 1 0 1 0 0 0 0 0 0 -1 0 0 10 0 0 0 0 0 0 0 0 0 0 0 0 0 0 0 0 0 0 0 0 0 0 0 0 0 0 0 0 0 0 0 0 0 0 0 0 0 0 0 0 0 0 0 0 0 0 0 0 0 0 0 0 0 0 0 0 0 0 0 0 0 0 0 0 0 0 0 0 0 0 0 0 0 0 0 0 0 0 0 0 0 0 0 0 0 0 0 0 0 0 0 0 0 0 0 0 0 0 0 0 0 0 0 0 0 0 0 0 
-61 -22 0 -8 0 -8 0 0 -5 0 0 0 0 0 0 0 0 -8 0 -3 0 0 0 0 -8 0 0 0 0 0 0 0 0 0 0 0 0 0 0 0 0 0 0 0 0 -31 0 5 -39 0 0 -2 0 0 2 0 0 0 0 0 0 0 -14 0 0 0 0 0 0 0 0 0 0 -5 0 0 0 0 0 0 0 0 0 0 0 0 0 0 0 0 0 0 0 0 -31 0 0 0 0 -14 0 0 0 0 0 -5 -26 0 0 0 0 0 0 -26 0 0 0 0 0 0 0 0 0 0 0 0 0 0 -26 0 0 0 0 0 0 0 0 -26 0 0 0 0 0 0 0 0 0 -14 0 0 0 0 -31 0 0 0 0 -10 0 0 0 0 0 0 0 0 0 0 0 0 0 0 0 0 0 0 0 0 0 0 0 -31 0 0 0 0 0 0 0 0 5 0 0 -3 0 -2 0 0 0 0 0 0 0 0 0 0 0 3 0 0 5 0 0 0 0 0 0 0 0 0 0 0 0 0 0 0 10 0 0 0 0 0 0 0 0 0 0 0 0 0 0 0 0 0 0 0 0 0 0 0 0 0 0 0 0 0 0 0 0 0 0 0 0 0 0 0 0 0 39 0 31 0 0 0 11 0 0 0 31 0 0 0 0 0 0 26 0 0 0 0 0 0 0 -3 0 0 0 0 0 0 0 0 5 0 0 0 -3 0 -5 0 0 0 0 0 -10 0 0 0 0 0 0 0 0 0 0 0 0 0 0 0 0 0 0 0 0 0 0 0 0 0 0 0 0 0 0 0 0 0 0 0 0 0 0 0 0 0 0 0 0 0 0 0 0 0 0 0 0 0 0 0 0 0 0 0 0 0 0 0 0 0 0 0 0 0 0 0 0 0 0 0 0 0 0 0 0 0 0 0 0 0 0 0 0 0 0 0 0 0 0 0 0 0 0 0 0 0 0 0 0 0 0 0 0 
-51 -35 0 -35 0 -35 7 0 -4 0 0 0 0 0 0 0 0 0 0 0 0 0 -42 0 0 0 0 0 0 0 4 0 0 0 0 0 0 0 0 0 0 0 0 0 0 0 0 0 -11 0 0 0 0 0 0 0 0 0 0 0 0 0 0 0 0 0 0 0 0 -72 0 0 0 0 0 0 0 0 -5 0 0 0 0 0 0 0 0 0 0 0 0 0 5 0 0 0 0 0 0 0 0 0 0 0 0 0 0 0 0 0 5 0 0 0 0 0 0 0 0 0 0 0 0 0 5 0 0 0 0 0 0 0 0 0 0 0 0 0 0 0 -5 0 0 0 0 0 0 0 0 0 0 0 0 0 0 0 0 0 0 0 0 0 0 0 0 0 0 0 0 0 0 0 0 0 0 0 0 0 0 0 0 0 0 0 0 0 0 0 0 0 4 0 0 0 0 0 0 0 0 0 0 0 0 0 0 0 0 0 0 0 4 0 0 0 0 0 0 0 0 0 0 0 0 0 0 0 0 0 0 0 0 0 0 0 0 0 0 0 0 0 0 0 0 0 0 0 0 0 0 0 -72 0 0 0 0 0 0 0 0 0 0 0 0 0 0 0 0 0 11 0 0 0 0 0 0 0 0 0 0 -5 0 0 0 0 0 0 0 0 5 -5 0 0 0 0 0 0 0 0 0 0 0 0 0 0 0 0 0 0 -4 0 0 0 0 0 0 0 0 0 0 0 0 0 0 0 0 0 0 0 0 0 0 0 0 0 0 0 0 0 0 0 0 0 0 0 0 0 0 0 0 0 0 0 0 0 0 0 0 0 0 0 0 0 0 0 0 0 0 0 0 0 0 0 0 0 0 0 0 0 0 0 0 0 0 0 0 0 0 0 0 0 0 0 0 0 0 0 0 0 0 0 0 0 0 0 0 0 0 0 0 0 0 0 0 0 0 0 0 0 0 0 0 0 0 
-44 -32 -1 -4 -1 0 0 0 -9 0 -3 -3 0 10 0 0 -9 0 -3 -4 0 -3 0 -9 0 0 0 0 0 0 0 0 2 -3 5 5 0 0 0 0 0 0 0 0 0 0 0 -3 -3 0 0 -3 1 0 0 4 1 0 0 0 0 1 0 -3 0 0 0 0 0 0 1 0 0 0 1 0 0 0 0 0 0 0 0 0 0 0 0 0 0 -14 0 -1 0 0 0 -1 0 0 0 0 0 0 0 1 0 0 -7 0 0 0 0 0 0 -2 0 0 -5 0 0 0 0 0 0 0 0 0 0 -1 0 0 0 0 0 0 0 0 0 0 0 3 -9 0 0 0 0 0 0 0 0 0 0 0 0 0 0 -9 0 0 0 0 0 0 0 -2 0 -9 0 0 0 0 0 0 0 2 0 0 0 0 0 0 0 0 -1 0 0 0 -2 0 0 0 0 0 0 3 0 0 0 0 0 -5 0 0 0 0 0 0 0 -3 0 0 0 0 0 0 0 0 0 0 0 0 0 0 0 2 0 0 0 0 0 0 0 0 0 0 0 0 0 0 0 0 0 0 0 0 0 0 0 0 0 0 0 0 0 0 0 0 0 0 0 -5 0 0 0 0 0 0 -10 0 3 0 0 -3 0 0 3 -1 0 0 0 0 2 0 0 0 0 0 -3 9 0 -9 0 0 0 -4 16 0 0 0 1 0 0 0 -3 0 0 0 3 0 0 0 0 0 0 -2 0 0 0 0 0 0 0 0 0 0 0 0 5 0 0 0 0 0 0 0 0 0 0 0 0 0 0 0 0 0 0 0 0 0 0 0 0 0 0 0 0 0 0 0 0 0 0 0 0 0 0 0 0 0 0 0 0 0 0 0 0 0 0 0 0 0 0 0 0 0 0 0 0 0 0 0 0 0 0 0 0 0 0 0 0 0 0 0 0 0 0 0 0 0 0 0 0 0 0 0 0 0 0 0 0 0 0 0 0 
#OUTPUT END
Model has been successfully processed
